z1,z2,z3,nondominated
6,2,10,0
8,1,1,0
9,7,1,0
6,7,7,0
4,3,2,0
2,1,6,0
6,3,8,0
4,3,2,0
9,7,7,0
3,10,6,0
5,2,8,0
10,7,10,0
4,8,4,0
8,5,8,0
1,2,5,0
9,10,3,0
4,2,7,0
5,2,1,0
7,1,4,0
7,7,5,0
10,7,7,0
5,2,7,0
2,5,7,0
7,9,8,0
5,2,10,0
2,2,5,0
2,9,6,0
9,3,6,0
4,10,3,0
4,1,10,0
3,4,5,0
4,3,10,0
3,3,6,0
1,10,2,0
3,2,4,0
6,10,9,0
1,1,1,0
1,1,1,0
1,1,1,0
1,1,1,0
1,1,1,0
1,1,1,0
